p wcnf 158 316 317 
1 -24 53 0 
1 144 -85 0 
1 -46 -141 0 
1 115 67 0 
1 -113 121 0 
1 -152 -1 0 
1 -88 42 0 
1 -41 -25 0 
1 5 153 0 
1 23 -155 0 
1 6 29 0 
1 -93 118 0 
1 129 -93 0 
1 95 133 0 
1 21 -86 0 
1 -95 -25 0 
1 136 48 0 
1 67 -10 0 
1 98 -129 0 
1 -66 83 0 
1 45 -107 0 
1 -76 -69 0 
1 -53 24 0 
1 -24 -157 0 
1 -19 -35 0 
1 58 74 0 
1 -86 123 0 
1 139 -81 0 
1 98 -144 0 
1 131 -33 0 
1 68 -2 0 
1 -81 -154 0 
1 -144 1 0 
1 -11 -134 0 
1 77 135 0 
1 -115 156 0 
1 -71 84 0 
1 3 157 0 
1 85 46 0 
1 -40 11 0 
1 -73 -38 0 
1 -7 131 0 
1 -92 -36 0 
1 15 -14 0 
1 23 94 0 
1 99 -118 0 
1 -7 146 0 
1 135 89 0 
1 154 -105 0 
1 -9 -8 0 
1 141 90 0 
1 -20 -65 0 
1 -119 -154 0 
1 -107 -149 0 
1 46 -55 0 
1 45 -32 0 
1 -5 -60 0 
1 80 -137 0 
1 -148 62 0 
1 101 -133 0 
1 98 56 0 
1 -91 124 0 
1 -90 149 0 
1 68 -73 0 
1 -21 -48 0 
1 149 127 0 
1 -142 140 0 
1 -135 -153 0 
1 86 -66 0 
1 -150 -47 0 
1 30 -145 0 
1 -152 -54 0 
1 -37 -151 0 
1 154 -84 0 
1 -154 35 0 
1 155 156 0 
1 127 -75 0 
1 -155 -152 0 
1 -30 -92 0 
1 -95 -46 0 
1 -158 7 0 
1 -1 146 0 
1 -71 22 0 
1 -142 -51 0 
1 -66 -65 0 
1 -29 127 0 
1 91 54 0 
1 119 145 0 
1 40 -17 0 
1 -137 -116 0 
1 -83 -143 0 
1 -72 -54 0 
1 -33 -132 0 
1 -21 84 0 
1 -131 -59 0 
1 -135 28 0 
1 14 -41 0 
1 38 30 0 
1 121 -23 0 
1 -28 -139 0 
1 -107 115 0 
1 -100 71 0 
1 119 -36 0 
1 -127 82 0 
1 102 73 0 
1 -49 -82 0 
1 49 -70 0 
1 -75 150 0 
1 27 -24 0 
1 -54 147 0 
1 104 -121 0 
1 76 44 0 
1 104 103 0 
1 -17 -60 0 
1 -41 -150 0 
1 64 100 0 
1 81 21 0 
1 94 83 0 
1 -149 -129 0 
1 25 -119 0 
1 70 151 0 
1 -151 4 0 
1 -53 23 0 
1 13 -40 0 
1 44 -81 0 
1 -77 -86 0 
1 -67 49 0 
1 -4 1 0 
1 75 158 0 
1 59 53 0 
1 41 133 0 
1 -24 -25 0 
1 19 -26 0 
1 -108 55 0 
1 68 -138 0 
1 73 -18 0 
1 -143 -133 0 
1 65 -149 0 
1 -141 100 0 
1 73 -35 0 
1 -151 77 0 
1 8 148 0 
1 -110 54 0 
1 117 103 0 
1 115 2 0 
1 -68 89 0 
1 -99 49 0 
1 -2 -107 0 
1 70 155 0 
1 -37 -108 0 
1 -3 75 0 
1 -4 44 0 
1 -85 -92 0 
1 -29 96 0 
1 -12 -146 0 
1 99 -109 0 
1 -34 -94 0 
1 111 28 0 
1 -19 101 0 
1 -134 -27 0 
1 -89 -17 0 
1 45 66 0 
1 138 -79 0 
1 -1 123 0 
1 -41 94 0 
1 -83 60 0 
1 -38 83 0 
1 9 126 0 
1 92 -143 0 
1 -90 13 0 
1 92 -98 0 
1 19 44 0 
1 -116 11 0 
1 153 -54 0 
1 -150 28 0 
1 -87 57 0 
1 -73 -83 0 
1 10 125 0 
1 141 -72 0 
1 -3 61 0 
1 -105 -41 0 
1 -81 -117 0 
1 8 -153 0 
1 -81 -32 0 
1 69 -13 0 
1 -117 -71 0 
1 115 113 0 
1 -144 -49 0 
1 22 57 0 
1 -89 -110 0 
1 54 133 0 
1 -14 -45 0 
1 70 -69 0 
1 115 95 0 
1 -113 -64 0 
1 -7 -5 0 
1 123 37 0 
1 118 -115 0 
1 -68 28 0 
1 54 -40 0 
1 -11 -87 0 
1 -24 21 0 
1 25 21 0 
1 -108 48 0 
1 -10 -22 0 
1 -27 111 0 
1 -139 -88 0 
1 126 -73 0 
1 -25 114 0 
1 -62 146 0 
1 68 -4 0 
1 44 -22 0 
1 146 128 0 
1 -142 -121 0 
1 -77 138 0 
1 114 134 0 
1 36 19 0 
1 -141 -98 0 
1 -118 -78 0 
1 37 -79 0 
1 60 24 0 
1 -20 -152 0 
1 -82 46 0 
1 -111 -112 0 
1 -9 -16 0 
1 -117 -21 0 
1 -19 -39 0 
1 146 -89 0 
1 -92 30 0 
1 -131 -103 0 
1 -79 -135 0 
1 9 -89 0 
1 67 -4 0 
1 121 -123 0 
1 -32 14 0 
1 49 150 0 
1 30 49 0 
1 -106 55 0 
1 -118 -140 0 
1 -33 141 0 
1 -140 -97 0 
1 -63 62 0 
1 -19 62 0 
1 -66 -152 0 
1 110 -65 0 
1 -27 -120 0 
1 -78 22 0 
1 73 69 0 
1 119 34 0 
1 141 -52 0 
1 -92 49 0 
1 51 154 0 
1 82 49 0 
1 11 47 0 
1 89 106 0 
1 -156 96 0 
1 -3 -21 0 
1 -144 76 0 
1 145 -81 0 
1 -25 83 0 
1 10 -81 0 
1 -21 -31 0 
1 -73 -2 0 
1 99 11 0 
1 -3 -12 0 
1 26 6 0 
1 121 -111 0 
1 108 36 0 
1 141 19 0 
1 -66 -158 0 
1 77 -115 0 
1 154 9 0 
1 7 36 0 
1 98 -106 0 
1 7 -75 0 
1 -98 -53 0 
1 114 32 0 
1 18 -37 0 
1 76 37 0 
1 -22 29 0 
1 13 -25 0 
1 -26 -143 0 
1 -74 65 0 
1 128 54 0 
1 47 -16 0 
1 -89 139 0 
1 -50 21 0 
1 105 -134 0 
1 -146 -37 0 
1 -76 93 0 
1 -77 135 0 
1 44 -145 0 
1 -148 -73 0 
1 52 12 0 
1 -32 53 0 
1 -120 -84 0 
1 52 90 0 
1 107 58 0 
1 35 -146 0 
1 39 -78 0 
1 80 83 0 
1 76 78 0 
1 -131 152 0 
1 21 51 0 
1 -119 96 0 
1 151 -3 0 
1 -54 94 0 
1 -19 56 0 
1 -68 -2 0 
1 143 48 0 
1 23 108 0 
1 113 74 0 
1 -71 -52 0 
1 -34 -21 0 
1 100 -62 0 
1 -158 -38 0 
